p cnf 7230 17
1007 -1009 0
879 -1011 0
1012 -1014 0
851 -1009 0
879 -1014 0
-879 -1012 1013 0
-851 -1007 1008 0
-879 -1007 1010 0
-1008 1009 0
-1013 1014 0
-1010 1011 0
1007 -1011 0
-851 -1012 1016 0
-1005 1006 0
1005 -1006 0
1012 -1016 0
851 -1016 0
